db/data/76095103128769932221203216619911227.z3.out
-------------------
2500.171304110
